12
0  34  22  75  11  68  19  44  27  50  38  15
34  0  56  31  70  24  43  66  29  18  55  21
22  56  0  60  33  25  12  71  36  49  22  40
75  31  60  0  58  14  39  53  18  31  65  23
11  70  33  58  0  36  59  12  50  27  18  41
68  24  25  14  36  0  31  57  16  38  22  60
19  43  12  39  59  31  0  48  29  61  14  55
44  66  71  53  12  57  48  0  12  47  20  33
27  29  36  18  50  16  29  12  0  55  36  19
50  18  49  31  27  38  61  47  55  0  28  55
38  55  22  65  18  22  14  20  36  28  0  62
15  21  40  23  41  60  55  33  19  55  62  0